/*********************************************
 * OPL 12.6.0.0 Data
 * Author: Adrian Rodriguez Bazaga, Pau Rodriguez Esmerats
 * Creation Date: 21/11/2017 at 23:07:29
 *********************************************/

nNurses=116;
maxConsec=2;
maxPresence=7;
maxHours=5;
minHours=1;
demand= [24 26 31 31 26 31 31 27 23 12 4 8 7 9 8 8 5 4 4 1 18 39 22 28  ];
